452 15
2 2 2 2 2 2 2 2 2 2 2 2 2 2 2
0  0 0 0 0 0 0 0 0 0 0 0 0 0 0 0  30 2 17 32 47 62 77 92 107 122 137 152 167 182 197 212 227 242 257 272 287 302 317 332 347 362 377 392 407 422 437
65  0 0 0 0 0 0 0 0 0 1 0 0 0 0 0  1 3
28  0 0 0 0 0 0 0 0 0 0 1 0 0 0 0  1 4
74  0 0 0 0 1 0 0 0 0 0 0 0 0 0 0  1 5
33  0 0 0 0 0 0 0 0 0 0 0 0 1 0 0  1 6
51  0 0 1 0 0 0 0 0 0 0 0 0 0 0 0  1 7
75  0 0 0 0 0 0 0 0 0 0 0 0 0 0 1  1 8
73  0 0 0 0 0 1 0 0 0 0 0 0 0 0 0  1 9
32  0 0 0 0 0 0 0 0 1 0 0 0 0 0 0  1 10
13  0 0 0 0 0 0 1 0 0 0 0 0 0 0 0  1 11
81  0 0 0 1 0 0 0 0 0 0 0 0 0 0 0  1 12
35  0 1 0 0 0 0 0 0 0 0 0 0 0 0 0  1 13
59  0 0 0 0 0 0 0 1 0 0 0 0 0 0 0  1 14
38  0 0 0 0 0 0 0 0 0 0 0 0 0 1 0  1 15
55  0 0 0 0 0 0 0 0 0 0 0 1 0 0 0  1 16
27  1 0 0 0 0 0 0 0 0 0 0 0 0 0 0  1 452
64  1 0 0 0 0 0 0 0 0 0 0 0 0 0 0  1 18
53  0 1 0 0 0 0 0 0 0 0 0 0 0 0 0  1 19
83  0 0 0 0 0 0 0 0 0 0 0 1 0 0 0  1 20
33  0 0 1 0 0 0 0 0 0 0 0 0 0 0 0  1 21
6  0 0 0 0 1 0 0 0 0 0 0 0 0 0 0  1 22
52  0 0 0 0 0 0 0 0 0 1 0 0 0 0 0  1 23
72  0 0 0 0 0 0 0 0 0 0 0 0 0 0 1  1 24
7  0 0 0 0 0 0 0 0 1 0 0 0 0 0 0  1 25
90  0 0 0 0 0 0 0 0 0 0 0 0 0 1 0  1 26
21  0 0 0 0 0 0 0 0 0 0 0 0 1 0 0  1 27
23  0 0 0 0 0 0 1 0 0 0 0 0 0 0 0  1 28
10  0 0 0 1 0 0 0 0 0 0 0 0 0 0 0  1 29
39  0 0 0 0 0 0 0 0 0 0 1 0 0 0 0  1 30
49  0 0 0 0 0 1 0 0 0 0 0 0 0 0 0  1 31
72  0 0 0 0 0 0 0 1 0 0 0 0 0 0 0  1 452
73  0 0 0 0 0 0 0 0 0 0 0 0 0 0 1  1 33
82  0 0 0 1 0 0 0 0 0 0 0 0 0 0 0  1 34
23  0 1 0 0 0 0 0 0 0 0 0 0 0 0 0  1 35
62  0 0 0 0 0 0 0 0 0 0 0 0 1 0 0  1 36
88  0 0 0 0 0 0 1 0 0 0 0 0 0 0 0  1 37
21  0 0 0 0 0 1 0 0 0 0 0 0 0 0 0  1 38
65  0 0 0 0 0 0 0 0 1 0 0 0 0 0 0  1 39
70  0 0 0 0 0 0 0 0 0 0 0 1 0 0 0  1 40
53  0 0 0 0 0 0 0 1 0 0 0 0 0 0 0  1 41
81  0 0 0 0 0 0 0 0 0 0 1 0 0 0 0  1 42
93  0 0 1 0 0 0 0 0 0 0 0 0 0 0 0  1 43
77  0 0 0 0 0 0 0 0 0 0 0 0 0 1 0  1 44
61  1 0 0 0 0 0 0 0 0 0 0 0 0 0 0  1 45
28  0 0 0 0 0 0 0 0 0 1 0 0 0 0 0  1 46
78  0 0 0 0 1 0 0 0 0 0 0 0 0 0 0  1 452
12  0 1 0 0 0 0 0 0 0 0 0 0 0 0 0  1 48
51  0 0 0 0 0 0 1 0 0 0 0 0 0 0 0  1 49
33  0 0 0 0 0 0 0 1 0 0 0 0 0 0 0  1 50
15  0 0 0 0 1 0 0 0 0 0 0 0 0 0 0  1 51
72  0 0 0 0 0 0 0 0 0 0 0 0 0 0 1  1 52
98  0 0 0 0 0 0 0 0 0 0 1 0 0 0 0  1 53
94  0 0 0 0 0 0 0 0 0 1 0 0 0 0 0  1 54
12  0 0 0 0 0 1 0 0 0 0 0 0 0 0 0  1 55
42  0 0 0 0 0 0 0 0 0 0 0 1 0 0 0  1 56
24  0 0 1 0 0 0 0 0 0 0 0 0 0 0 0  1 57
15  0 0 0 0 0 0 0 0 0 0 0 0 0 1 0  1 58
28  0 0 0 0 0 0 0 0 1 0 0 0 0 0 0  1 59
6  0 0 0 1 0 0 0 0 0 0 0 0 0 0 0  1 60
99  0 0 0 0 0 0 0 0 0 0 0 0 1 0 0  1 61
41  1 0 0 0 0 0 0 0 0 0 0 0 0 0 0  1 452
97  0 0 0 0 0 0 0 0 0 0 0 0 1 0 0  1 63
7  0 0 0 0 0 1 0 0 0 0 0 0 0 0 0  1 64
96  0 0 0 0 0 0 0 0 0 1 0 0 0 0 0  1 65
15  0 0 0 0 1 0 0 0 0 0 0 0 0 0 0  1 66
73  0 0 0 0 0 0 0 0 0 0 0 0 0 0 1  1 67
43  0 0 0 0 0 0 0 0 0 0 0 0 0 1 0  1 68
32  1 0 0 0 0 0 0 0 0 0 0 0 0 0 0  1 69
22  0 0 0 0 0 0 0 0 1 0 0 0 0 0 0  1 70
42  0 0 0 0 0 0 0 0 0 0 0 1 0 0 0  1 71
94  0 1 0 0 0 0 0 0 0 0 0 0 0 0 0  1 72
23  0 0 1 0 0 0 0 0 0 0 0 0 0 0 0  1 73
86  0 0 0 0 0 0 0 1 0 0 0 0 0 0 0  1 74
78  0 0 0 0 0 0 1 0 0 0 0 0 0 0 0  1 75
24  0 0 0 0 0 0 0 0 0 0 1 0 0 0 0  1 76
31  0 0 0 1 0 0 0 0 0 0 0 0 0 0 0  1 452
72  0 1 0 0 0 0 0 0 0 0 0 0 0 0 0  1 78
88  0 0 0 0 0 1 0 0 0 0 0 0 0 0 0  1 79
93  0 0 1 0 0 0 0 0 0 0 0 0 0 0 0  1 80
13  0 0 0 0 0 0 0 0 0 0 0 0 0 1 0  1 81
44  0 0 0 0 1 0 0 0 0 0 0 0 0 0 0  1 82
66  0 0 0 0 0 0 0 0 0 0 0 0 0 0 1  1 83
63  0 0 0 0 0 0 1 0 0 0 0 0 0 0 0  1 84
14  0 0 0 0 0 0 0 1 0 0 0 0 0 0 0  1 85
67  0 0 0 0 0 0 0 0 0 1 0 0 0 0 0  1 86
17  0 0 0 0 0 0 0 0 0 0 1 0 0 0 0  1 87
85  0 0 0 0 0 0 0 0 0 0 0 1 0 0 0  1 88
35  1 0 0 0 0 0 0 0 0 0 0 0 0 0 0  1 89
68  0 0 0 1 0 0 0 0 0 0 0 0 0 0 0  1 90
5  0 0 0 0 0 0 0 0 0 0 0 0 1 0 0  1 91
49  0 0 0 0 0 0 0 0 1 0 0 0 0 0 0  1 452
15  0 0 0 0 0 0 0 0 0 1 0 0 0 0 0  1 93
82  0 0 0 0 0 0 0 1 0 0 0 0 0 0 0  1 94
21  0 0 0 0 0 0 1 0 0 0 0 0 0 0 0  1 95
53  0 0 0 0 0 0 0 0 0 0 0 0 0 0 1  1 96
72  0 0 0 1 0 0 0 0 0 0 0 0 0 0 0  1 97
49  0 0 0 0 0 0 0 0 0 0 0 0 0 1 0  1 98
99  0 0 1 0 0 0 0 0 0 0 0 0 0 0 0  1 99
26  0 0 0 0 1 0 0 0 0 0 0 0 0 0 0  1 100
56  0 0 0 0 0 0 0 0 0 0 0 0 1 0 0  1 101
45  0 0 0 0 0 0 0 0 1 0 0 0 0 0 0  1 102
68  0 1 0 0 0 0 0 0 0 0 0 0 0 0 0  1 103
51  0 0 0 0 0 0 0 0 0 0 1 0 0 0 0  1 104
8  1 0 0 0 0 0 0 0 0 0 0 0 0 0 0  1 105
27  0 0 0 0 0 1 0 0 0 0 0 0 0 0 0  1 106
96  0 0 0 0 0 0 0 0 0 0 0 1 0 0 0  1 452
54  0 0 0 1 0 0 0 0 0 0 0 0 0 0 0  1 108
24  0 0 0 0 0 0 0 1 0 0 0 0 0 0 0  1 109
14  0 0 0 0 1 0 0 0 0 0 0 0 0 0 0  1 110
38  0 0 0 0 0 0 0 0 1 0 0 0 0 0 0  1 111
36  0 0 0 0 0 1 0 0 0 0 0 0 0 0 0  1 112
52  0 0 1 0 0 0 0 0 0 0 0 0 0 0 0  1 113
55  0 0 0 0 0 0 0 0 0 0 0 0 0 0 1  1 114
37  0 0 0 0 0 0 0 0 0 0 0 0 1 0 0  1 115
48  0 0 0 0 0 0 0 0 0 0 0 1 0 0 0  1 116
93  1 0 0 0 0 0 0 0 0 0 0 0 0 0 0  1 117
60  0 0 0 0 0 0 0 0 0 0 0 0 0 1 0  1 118
70  0 0 0 0 0 0 0 0 0 0 1 0 0 0 0  1 119
23  0 1 0 0 0 0 0 0 0 0 0 0 0 0 0  1 120
23  0 0 0 0 0 0 1 0 0 0 0 0 0 0 0  1 121
83  0 0 0 0 0 0 0 0 0 1 0 0 0 0 0  1 452
12  0 0 0 1 0 0 0 0 0 0 0 0 0 0 0  1 123
69  0 0 0 0 0 0 0 0 1 0 0 0 0 0 0  1 124
26  0 0 0 0 0 0 1 0 0 0 0 0 0 0 0  1 125
23  0 0 0 0 0 0 0 0 0 1 0 0 0 0 0  1 126
28  0 0 0 0 0 0 0 0 0 0 0 0 0 0 1  1 127
82  0 1 0 0 0 0 0 0 0 0 0 0 0 0 0  1 128
33  0 0 0 0 0 1 0 0 0 0 0 0 0 0 0  1 129
45  0 0 0 0 1 0 0 0 0 0 0 0 0 0 0  1 130
64  0 0 0 0 0 0 0 0 0 0 0 0 0 1 0  1 131
15  0 0 0 0 0 0 0 1 0 0 0 0 0 0 0  1 132
9  0 0 0 0 0 0 0 0 0 0 0 1 0 0 0  1 133
73  0 0 0 0 0 0 0 0 0 0 0 0 1 0 0  1 134
59  0 0 0 0 0 0 0 0 0 0 1 0 0 0 0  1 135
37  0 0 1 0 0 0 0 0 0 0 0 0 0 0 0  1 136
62  1 0 0 0 0 0 0 0 0 0 0 0 0 0 0  1 452
87  1 0 0 0 0 0 0 0 0 0 0 0 0 0 0  1 138
12  0 0 0 0 0 1 0 0 0 0 0 0 0 0 0  1 139
80  0 0 0 0 0 0 0 1 0 0 0 0 0 0 0  1 140
50  0 0 0 0 1 0 0 0 0 0 0 0 0 0 0  1 141
48  0 0 0 0 0 0 0 0 0 0 1 0 0 0 0  1 142
90  0 0 0 0 0 0 0 0 0 0 0 0 1 0 0  1 143
72  0 1 0 0 0 0 0 0 0 0 0 0 0 0 0  1 144
24  0 0 0 0 0 0 0 0 0 0 0 0 0 1 0  1 145
14  0 0 0 0 0 0 1 0 0 0 0 0 0 0 0  1 146
71  0 0 0 0 0 0 0 0 1 0 0 0 0 0 0  1 147
44  0 0 0 0 0 0 0 0 0 0 0 1 0 0 0  1 148
46  0 0 0 0 0 0 0 0 0 1 0 0 0 0 0  1 149
15  0 0 1 0 0 0 0 0 0 0 0 0 0 0 0  1 150
61  0 0 0 0 0 0 0 0 0 0 0 0 0 0 1  1 151
92  0 0 0 1 0 0 0 0 0 0 0 0 0 0 0  1 452
54  0 0 1 0 0 0 0 0 0 0 0 0 0 0 0  1 153
22  1 0 0 0 0 0 0 0 0 0 0 0 0 0 0  1 154
61  0 0 0 0 0 0 1 0 0 0 0 0 0 0 0  1 155
46  0 0 0 0 1 0 0 0 0 0 0 0 0 0 0  1 156
73  0 0 0 1 0 0 0 0 0 0 0 0 0 0 0  1 157
16  0 0 0 0 0 1 0 0 0 0 0 0 0 0 0  1 158
6  0 0 0 0 0 0 0 0 0 0 0 0 1 0 0  1 159
94  0 0 0 0 0 0 0 0 0 1 0 0 0 0 0  1 160
93  0 0 0 0 0 0 0 0 0 0 0 0 0 0 1  1 161
67  0 0 0 0 0 0 0 0 0 0 0 0 0 1 0  1 162
54  0 0 0 0 0 0 0 0 1 0 0 0 0 0 0  1 163
75  0 0 0 0 0 0 0 1 0 0 0 0 0 0 0  1 164
32  0 0 0 0 0 0 0 0 0 0 0 1 0 0 0  1 165
40  0 0 0 0 0 0 0 0 0 0 1 0 0 0 0  1 166
97  0 1 0 0 0 0 0 0 0 0 0 0 0 0 0  1 452
92  0 0 0 0 0 0 0 0 0 0 1 0 0 0 0  1 168
36  0 0 0 0 0 0 0 0 0 0 0 0 0 0 1  1 169
22  0 0 0 0 1 0 0 0 0 0 0 0 0 0 0  1 170
9  0 0 0 0 0 0 0 0 0 1 0 0 0 0 0  1 171
47  0 0 0 1 0 0 0 0 0 0 0 0 0 0 0  1 172
77  0 1 0 0 0 0 0 0 0 0 0 0 0 0 0  1 173
79  0 0 0 0 0 0 0 0 0 0 0 0 1 0 0  1 174
36  0 0 0 0 0 0 0 0 0 0 0 0 0 1 0  1 175
30  0 0 0 0 0 0 1 0 0 0 0 0 0 0 0  1 176
98  0 0 0 0 0 0 0 0 1 0 0 0 0 0 0  1 177
79  0 0 0 0 0 0 0 0 0 0 0 1 0 0 0  1 178
7  0 0 0 0 0 0 0 1 0 0 0 0 0 0 0  1 179
55  0 0 0 0 0 1 0 0 0 0 0 0 0 0 0  1 180
6  0 0 1 0 0 0 0 0 0 0 0 0 0 0 0  1 181
30  1 0 0 0 0 0 0 0 0 0 0 0 0 0 0  1 452
49  1 0 0 0 0 0 0 0 0 0 0 0 0 0 0  1 183
83  0 0 0 0 0 0 0 0 0 0 0 0 0 1 0  1 184
73  0 0 0 1 0 0 0 0 0 0 0 0 0 0 0  1 185
82  0 0 0 0 0 0 1 0 0 0 0 0 0 0 0  1 186
82  0 1 0 0 0 0 0 0 0 0 0 0 0 0 0  1 187
92  0 0 0 0 0 0 0 0 0 0 0 0 0 0 1  1 188
73  0 0 0 0 0 0 0 0 0 0 0 1 0 0 0  1 189
31  0 0 0 0 1 0 0 0 0 0 0 0 0 0 0  1 190
35  0 0 0 0 0 0 0 0 0 0 1 0 0 0 0  1 191
54  0 0 0 0 0 0 0 0 0 1 0 0 0 0 0  1 192
7  0 0 0 0 0 1 0 0 0 0 0 0 0 0 0  1 193
37  0 0 0 0 0 0 0 0 1 0 0 0 0 0 0  1 194
72  0 0 0 0 0 0 0 1 0 0 0 0 0 0 0  1 195
52  0 0 1 0 0 0 0 0 0 0 0 0 0 0 0  1 196
76  0 0 0 0 0 0 0 0 0 0 0 0 1 0 0  1 452
98  0 0 0 0 0 0 0 0 0 0 1 0 0 0 0  1 198
34  0 0 0 0 0 0 0 0 0 0 0 0 1 0 0  1 199
52  0 0 0 0 0 0 0 0 0 0 0 0 0 1 0  1 200
26  0 0 0 0 1 0 0 0 0 0 0 0 0 0 0  1 201
28  0 1 0 0 0 0 0 0 0 0 0 0 0 0 0  1 202
39  0 0 0 1 0 0 0 0 0 0 0 0 0 0 0  1 203
80  0 0 0 0 0 0 0 0 1 0 0 0 0 0 0  1 204
29  0 0 0 0 0 1 0 0 0 0 0 0 0 0 0  1 205
70  0 0 0 0 0 0 0 0 0 1 0 0 0 0 0  1 206
43  1 0 0 0 0 0 0 0 0 0 0 0 0 0 0  1 207
48  0 0 0 0 0 0 1 0 0 0 0 0 0 0 0  1 208
58  0 0 0 0 0 0 0 1 0 0 0 0 0 0 0  1 209
45  0 0 1 0 0 0 0 0 0 0 0 0 0 0 0  1 210
94  0 0 0 0 0 0 0 0 0 0 0 0 0 0 1  1 211
96  0 0 0 0 0 0 0 0 0 0 0 1 0 0 0  1 452
70  0 1 0 0 0 0 0 0 0 0 0 0 0 0 0  1 213
17  0 0 0 0 0 0 0 0 0 0 1 0 0 0 0  1 214
90  0 0 0 0 0 0 1 0 0 0 0 0 0 0 0  1 215
67  0 0 0 0 0 0 0 0 0 0 0 0 1 0 0  1 216
14  0 0 0 0 1 0 0 0 0 0 0 0 0 0 0  1 217
23  0 0 0 0 0 0 0 0 1 0 0 0 0 0 0  1 218
21  0 0 0 1 0 0 0 0 0 0 0 0 0 0 0  1 219
18  0 0 0 0 0 0 0 1 0 0 0 0 0 0 0  1 220
43  0 0 0 0 0 0 0 0 0 0 0 0 0 1 0  1 221
84  0 0 0 0 0 0 0 0 0 0 0 1 0 0 0  1 222
26  0 0 0 0 0 1 0 0 0 0 0 0 0 0 0  1 223
36  0 0 0 0 0 0 0 0 0 1 0 0 0 0 0  1 224
93  0 0 1 0 0 0 0 0 0 0 0 0 0 0 0  1 225
84  0 0 0 0 0 0 0 0 0 0 0 0 0 0 1  1 226
42  1 0 0 0 0 0 0 0 0 0 0 0 0 0 0  1 452
65  0 0 0 0 0 0 0 0 0 1 0 0 0 0 0  1 228
28  0 0 0 0 0 0 0 0 0 0 1 0 0 0 0  1 229
74  0 0 0 0 1 0 0 0 0 0 0 0 0 0 0  1 230
33  0 0 0 0 0 0 0 0 0 0 0 0 1 0 0  1 231
51  0 0 1 0 0 0 0 0 0 0 0 0 0 0 0  1 232
75  0 0 0 0 0 0 0 0 0 0 0 0 0 0 1  1 233
73  0 0 0 0 0 1 0 0 0 0 0 0 0 0 0  1 234
32  0 0 0 0 0 0 0 0 1 0 0 0 0 0 0  1 235
13  0 0 0 0 0 0 1 0 0 0 0 0 0 0 0  1 236
81  0 0 0 1 0 0 0 0 0 0 0 0 0 0 0  1 237
35  0 1 0 0 0 0 0 0 0 0 0 0 0 0 0  1 238
59  0 0 0 0 0 0 0 1 0 0 0 0 0 0 0  1 239
38  0 0 0 0 0 0 0 0 0 0 0 0 0 1 0  1 240
55  0 0 0 0 0 0 0 0 0 0 0 1 0 0 0  1 241
27  1 0 0 0 0 0 0 0 0 0 0 0 0 0 0  1 452
64  1 0 0 0 0 0 0 0 0 0 0 0 0 0 0  1 243
53  0 1 0 0 0 0 0 0 0 0 0 0 0 0 0  1 244
83  0 0 0 0 0 0 0 0 0 0 0 1 0 0 0  1 245
33  0 0 1 0 0 0 0 0 0 0 0 0 0 0 0  1 246
6  0 0 0 0 1 0 0 0 0 0 0 0 0 0 0  1 247
52  0 0 0 0 0 0 0 0 0 1 0 0 0 0 0  1 248
72  0 0 0 0 0 0 0 0 0 0 0 0 0 0 1  1 249
7  0 0 0 0 0 0 0 0 1 0 0 0 0 0 0  1 250
90  0 0 0 0 0 0 0 0 0 0 0 0 0 1 0  1 251
21  0 0 0 0 0 0 0 0 0 0 0 0 1 0 0  1 252
23  0 0 0 0 0 0 1 0 0 0 0 0 0 0 0  1 253
10  0 0 0 1 0 0 0 0 0 0 0 0 0 0 0  1 254
39  0 0 0 0 0 0 0 0 0 0 1 0 0 0 0  1 255
49  0 0 0 0 0 1 0 0 0 0 0 0 0 0 0  1 256
72  0 0 0 0 0 0 0 1 0 0 0 0 0 0 0  1 452
73  0 0 0 0 0 0 0 0 0 0 0 0 0 0 1  1 258
82  0 0 0 1 0 0 0 0 0 0 0 0 0 0 0  1 259
23  0 1 0 0 0 0 0 0 0 0 0 0 0 0 0  1 260
62  0 0 0 0 0 0 0 0 0 0 0 0 1 0 0  1 261
88  0 0 0 0 0 0 1 0 0 0 0 0 0 0 0  1 262
21  0 0 0 0 0 1 0 0 0 0 0 0 0 0 0  1 263
65  0 0 0 0 0 0 0 0 1 0 0 0 0 0 0  1 264
70  0 0 0 0 0 0 0 0 0 0 0 1 0 0 0  1 265
53  0 0 0 0 0 0 0 1 0 0 0 0 0 0 0  1 266
81  0 0 0 0 0 0 0 0 0 0 1 0 0 0 0  1 267
93  0 0 1 0 0 0 0 0 0 0 0 0 0 0 0  1 268
77  0 0 0 0 0 0 0 0 0 0 0 0 0 1 0  1 269
61  1 0 0 0 0 0 0 0 0 0 0 0 0 0 0  1 270
28  0 0 0 0 0 0 0 0 0 1 0 0 0 0 0  1 271
78  0 0 0 0 1 0 0 0 0 0 0 0 0 0 0  1 452
12  0 1 0 0 0 0 0 0 0 0 0 0 0 0 0  1 273
51  0 0 0 0 0 0 1 0 0 0 0 0 0 0 0  1 274
33  0 0 0 0 0 0 0 1 0 0 0 0 0 0 0  1 275
15  0 0 0 0 1 0 0 0 0 0 0 0 0 0 0  1 276
72  0 0 0 0 0 0 0 0 0 0 0 0 0 0 1  1 277
98  0 0 0 0 0 0 0 0 0 0 1 0 0 0 0  1 278
94  0 0 0 0 0 0 0 0 0 1 0 0 0 0 0  1 279
12  0 0 0 0 0 1 0 0 0 0 0 0 0 0 0  1 280
42  0 0 0 0 0 0 0 0 0 0 0 1 0 0 0  1 281
24  0 0 1 0 0 0 0 0 0 0 0 0 0 0 0  1 282
15  0 0 0 0 0 0 0 0 0 0 0 0 0 1 0  1 283
28  0 0 0 0 0 0 0 0 1 0 0 0 0 0 0  1 284
6  0 0 0 1 0 0 0 0 0 0 0 0 0 0 0  1 285
99  0 0 0 0 0 0 0 0 0 0 0 0 1 0 0  1 286
41  1 0 0 0 0 0 0 0 0 0 0 0 0 0 0  1 452
97  0 0 0 0 0 0 0 0 0 0 0 0 1 0 0  1 288
7  0 0 0 0 0 1 0 0 0 0 0 0 0 0 0  1 289
96  0 0 0 0 0 0 0 0 0 1 0 0 0 0 0  1 290
15  0 0 0 0 1 0 0 0 0 0 0 0 0 0 0  1 291
73  0 0 0 0 0 0 0 0 0 0 0 0 0 0 1  1 292
43  0 0 0 0 0 0 0 0 0 0 0 0 0 1 0  1 293
32  1 0 0 0 0 0 0 0 0 0 0 0 0 0 0  1 294
22  0 0 0 0 0 0 0 0 1 0 0 0 0 0 0  1 295
42  0 0 0 0 0 0 0 0 0 0 0 1 0 0 0  1 296
94  0 1 0 0 0 0 0 0 0 0 0 0 0 0 0  1 297
23  0 0 1 0 0 0 0 0 0 0 0 0 0 0 0  1 298
86  0 0 0 0 0 0 0 1 0 0 0 0 0 0 0  1 299
78  0 0 0 0 0 0 1 0 0 0 0 0 0 0 0  1 300
24  0 0 0 0 0 0 0 0 0 0 1 0 0 0 0  1 301
31  0 0 0 1 0 0 0 0 0 0 0 0 0 0 0  1 452
72  0 1 0 0 0 0 0 0 0 0 0 0 0 0 0  1 303
88  0 0 0 0 0 1 0 0 0 0 0 0 0 0 0  1 304
93  0 0 1 0 0 0 0 0 0 0 0 0 0 0 0  1 305
13  0 0 0 0 0 0 0 0 0 0 0 0 0 1 0  1 306
44  0 0 0 0 1 0 0 0 0 0 0 0 0 0 0  1 307
66  0 0 0 0 0 0 0 0 0 0 0 0 0 0 1  1 308
63  0 0 0 0 0 0 1 0 0 0 0 0 0 0 0  1 309
14  0 0 0 0 0 0 0 1 0 0 0 0 0 0 0  1 310
67  0 0 0 0 0 0 0 0 0 1 0 0 0 0 0  1 311
17  0 0 0 0 0 0 0 0 0 0 1 0 0 0 0  1 312
85  0 0 0 0 0 0 0 0 0 0 0 1 0 0 0  1 313
35  1 0 0 0 0 0 0 0 0 0 0 0 0 0 0  1 314
68  0 0 0 1 0 0 0 0 0 0 0 0 0 0 0  1 315
5  0 0 0 0 0 0 0 0 0 0 0 0 1 0 0  1 316
49  0 0 0 0 0 0 0 0 1 0 0 0 0 0 0  1 452
15  0 0 0 0 0 0 0 0 0 1 0 0 0 0 0  1 318
82  0 0 0 0 0 0 0 1 0 0 0 0 0 0 0  1 319
21  0 0 0 0 0 0 1 0 0 0 0 0 0 0 0  1 320
53  0 0 0 0 0 0 0 0 0 0 0 0 0 0 1  1 321
72  0 0 0 1 0 0 0 0 0 0 0 0 0 0 0  1 322
49  0 0 0 0 0 0 0 0 0 0 0 0 0 1 0  1 323
99  0 0 1 0 0 0 0 0 0 0 0 0 0 0 0  1 324
26  0 0 0 0 1 0 0 0 0 0 0 0 0 0 0  1 325
56  0 0 0 0 0 0 0 0 0 0 0 0 1 0 0  1 326
45  0 0 0 0 0 0 0 0 1 0 0 0 0 0 0  1 327
68  0 1 0 0 0 0 0 0 0 0 0 0 0 0 0  1 328
51  0 0 0 0 0 0 0 0 0 0 1 0 0 0 0  1 329
8  1 0 0 0 0 0 0 0 0 0 0 0 0 0 0  1 330
27  0 0 0 0 0 1 0 0 0 0 0 0 0 0 0  1 331
96  0 0 0 0 0 0 0 0 0 0 0 1 0 0 0  1 452
54  0 0 0 1 0 0 0 0 0 0 0 0 0 0 0  1 333
24  0 0 0 0 0 0 0 1 0 0 0 0 0 0 0  1 334
14  0 0 0 0 1 0 0 0 0 0 0 0 0 0 0  1 335
38  0 0 0 0 0 0 0 0 1 0 0 0 0 0 0  1 336
36  0 0 0 0 0 1 0 0 0 0 0 0 0 0 0  1 337
52  0 0 1 0 0 0 0 0 0 0 0 0 0 0 0  1 338
55  0 0 0 0 0 0 0 0 0 0 0 0 0 0 1  1 339
37  0 0 0 0 0 0 0 0 0 0 0 0 1 0 0  1 340
48  0 0 0 0 0 0 0 0 0 0 0 1 0 0 0  1 341
93  1 0 0 0 0 0 0 0 0 0 0 0 0 0 0  1 342
60  0 0 0 0 0 0 0 0 0 0 0 0 0 1 0  1 343
70  0 0 0 0 0 0 0 0 0 0 1 0 0 0 0  1 344
23  0 1 0 0 0 0 0 0 0 0 0 0 0 0 0  1 345
23  0 0 0 0 0 0 1 0 0 0 0 0 0 0 0  1 346
83  0 0 0 0 0 0 0 0 0 1 0 0 0 0 0  1 452
12  0 0 0 1 0 0 0 0 0 0 0 0 0 0 0  1 348
69  0 0 0 0 0 0 0 0 1 0 0 0 0 0 0  1 349
26  0 0 0 0 0 0 1 0 0 0 0 0 0 0 0  1 350
23  0 0 0 0 0 0 0 0 0 1 0 0 0 0 0  1 351
28  0 0 0 0 0 0 0 0 0 0 0 0 0 0 1  1 352
82  0 1 0 0 0 0 0 0 0 0 0 0 0 0 0  1 353
33  0 0 0 0 0 1 0 0 0 0 0 0 0 0 0  1 354
45  0 0 0 0 1 0 0 0 0 0 0 0 0 0 0  1 355
64  0 0 0 0 0 0 0 0 0 0 0 0 0 1 0  1 356
15  0 0 0 0 0 0 0 1 0 0 0 0 0 0 0  1 357
9  0 0 0 0 0 0 0 0 0 0 0 1 0 0 0  1 358
73  0 0 0 0 0 0 0 0 0 0 0 0 1 0 0  1 359
59  0 0 0 0 0 0 0 0 0 0 1 0 0 0 0  1 360
37  0 0 1 0 0 0 0 0 0 0 0 0 0 0 0  1 361
62  1 0 0 0 0 0 0 0 0 0 0 0 0 0 0  1 452
87  1 0 0 0 0 0 0 0 0 0 0 0 0 0 0  1 363
12  0 0 0 0 0 1 0 0 0 0 0 0 0 0 0  1 364
80  0 0 0 0 0 0 0 1 0 0 0 0 0 0 0  1 365
50  0 0 0 0 1 0 0 0 0 0 0 0 0 0 0  1 366
48  0 0 0 0 0 0 0 0 0 0 1 0 0 0 0  1 367
90  0 0 0 0 0 0 0 0 0 0 0 0 1 0 0  1 368
72  0 1 0 0 0 0 0 0 0 0 0 0 0 0 0  1 369
24  0 0 0 0 0 0 0 0 0 0 0 0 0 1 0  1 370
14  0 0 0 0 0 0 1 0 0 0 0 0 0 0 0  1 371
71  0 0 0 0 0 0 0 0 1 0 0 0 0 0 0  1 372
44  0 0 0 0 0 0 0 0 0 0 0 1 0 0 0  1 373
46  0 0 0 0 0 0 0 0 0 1 0 0 0 0 0  1 374
15  0 0 1 0 0 0 0 0 0 0 0 0 0 0 0  1 375
61  0 0 0 0 0 0 0 0 0 0 0 0 0 0 1  1 376
92  0 0 0 1 0 0 0 0 0 0 0 0 0 0 0  1 452
54  0 0 1 0 0 0 0 0 0 0 0 0 0 0 0  1 378
22  1 0 0 0 0 0 0 0 0 0 0 0 0 0 0  1 379
61  0 0 0 0 0 0 1 0 0 0 0 0 0 0 0  1 380
46  0 0 0 0 1 0 0 0 0 0 0 0 0 0 0  1 381
73  0 0 0 1 0 0 0 0 0 0 0 0 0 0 0  1 382
16  0 0 0 0 0 1 0 0 0 0 0 0 0 0 0  1 383
6  0 0 0 0 0 0 0 0 0 0 0 0 1 0 0  1 384
94  0 0 0 0 0 0 0 0 0 1 0 0 0 0 0  1 385
93  0 0 0 0 0 0 0 0 0 0 0 0 0 0 1  1 386
67  0 0 0 0 0 0 0 0 0 0 0 0 0 1 0  1 387
54  0 0 0 0 0 0 0 0 1 0 0 0 0 0 0  1 388
75  0 0 0 0 0 0 0 1 0 0 0 0 0 0 0  1 389
32  0 0 0 0 0 0 0 0 0 0 0 1 0 0 0  1 390
40  0 0 0 0 0 0 0 0 0 0 1 0 0 0 0  1 391
97  0 1 0 0 0 0 0 0 0 0 0 0 0 0 0  1 452
92  0 0 0 0 0 0 0 0 0 0 1 0 0 0 0  1 393
36  0 0 0 0 0 0 0 0 0 0 0 0 0 0 1  1 394
22  0 0 0 0 1 0 0 0 0 0 0 0 0 0 0  1 395
9  0 0 0 0 0 0 0 0 0 1 0 0 0 0 0  1 396
47  0 0 0 1 0 0 0 0 0 0 0 0 0 0 0  1 397
77  0 1 0 0 0 0 0 0 0 0 0 0 0 0 0  1 398
79  0 0 0 0 0 0 0 0 0 0 0 0 1 0 0  1 399
36  0 0 0 0 0 0 0 0 0 0 0 0 0 1 0  1 400
30  0 0 0 0 0 0 1 0 0 0 0 0 0 0 0  1 401
98  0 0 0 0 0 0 0 0 1 0 0 0 0 0 0  1 402
79  0 0 0 0 0 0 0 0 0 0 0 1 0 0 0  1 403
7  0 0 0 0 0 0 0 1 0 0 0 0 0 0 0  1 404
55  0 0 0 0 0 1 0 0 0 0 0 0 0 0 0  1 405
6  0 0 1 0 0 0 0 0 0 0 0 0 0 0 0  1 406
30  1 0 0 0 0 0 0 0 0 0 0 0 0 0 0  1 452
49  1 0 0 0 0 0 0 0 0 0 0 0 0 0 0  1 408
83  0 0 0 0 0 0 0 0 0 0 0 0 0 1 0  1 409
73  0 0 0 1 0 0 0 0 0 0 0 0 0 0 0  1 410
82  0 0 0 0 0 0 1 0 0 0 0 0 0 0 0  1 411
82  0 1 0 0 0 0 0 0 0 0 0 0 0 0 0  1 412
92  0 0 0 0 0 0 0 0 0 0 0 0 0 0 1  1 413
73  0 0 0 0 0 0 0 0 0 0 0 1 0 0 0  1 414
31  0 0 0 0 1 0 0 0 0 0 0 0 0 0 0  1 415
35  0 0 0 0 0 0 0 0 0 0 1 0 0 0 0  1 416
54  0 0 0 0 0 0 0 0 0 1 0 0 0 0 0  1 417
7  0 0 0 0 0 1 0 0 0 0 0 0 0 0 0  1 418
37  0 0 0 0 0 0 0 0 1 0 0 0 0 0 0  1 419
72  0 0 0 0 0 0 0 1 0 0 0 0 0 0 0  1 420
52  0 0 1 0 0 0 0 0 0 0 0 0 0 0 0  1 421
76  0 0 0 0 0 0 0 0 0 0 0 0 1 0 0  1 452
98  0 0 0 0 0 0 0 0 0 0 1 0 0 0 0  1 423
34  0 0 0 0 0 0 0 0 0 0 0 0 1 0 0  1 424
52  0 0 0 0 0 0 0 0 0 0 0 0 0 1 0  1 425
26  0 0 0 0 1 0 0 0 0 0 0 0 0 0 0  1 426
28  0 1 0 0 0 0 0 0 0 0 0 0 0 0 0  1 427
39  0 0 0 1 0 0 0 0 0 0 0 0 0 0 0  1 428
80  0 0 0 0 0 0 0 0 1 0 0 0 0 0 0  1 429
29  0 0 0 0 0 1 0 0 0 0 0 0 0 0 0  1 430
70  0 0 0 0 0 0 0 0 0 1 0 0 0 0 0  1 431
43  1 0 0 0 0 0 0 0 0 0 0 0 0 0 0  1 432
48  0 0 0 0 0 0 1 0 0 0 0 0 0 0 0  1 433
58  0 0 0 0 0 0 0 1 0 0 0 0 0 0 0  1 434
45  0 0 1 0 0 0 0 0 0 0 0 0 0 0 0  1 435
94  0 0 0 0 0 0 0 0 0 0 0 0 0 0 1  1 436
96  0 0 0 0 0 0 0 0 0 0 0 1 0 0 0  1 452
70  0 1 0 0 0 0 0 0 0 0 0 0 0 0 0  1 438
17  0 0 0 0 0 0 0 0 0 0 1 0 0 0 0  1 439
90  0 0 0 0 0 0 1 0 0 0 0 0 0 0 0  1 440
67  0 0 0 0 0 0 0 0 0 0 0 0 1 0 0  1 441
14  0 0 0 0 1 0 0 0 0 0 0 0 0 0 0  1 442
23  0 0 0 0 0 0 0 0 1 0 0 0 0 0 0  1 443
21  0 0 0 1 0 0 0 0 0 0 0 0 0 0 0  1 444
18  0 0 0 0 0 0 0 1 0 0 0 0 0 0 0  1 445
43  0 0 0 0 0 0 0 0 0 0 0 0 0 1 0  1 446
84  0 0 0 0 0 0 0 0 0 0 0 1 0 0 0  1 447
26  0 0 0 0 0 1 0 0 0 0 0 0 0 0 0  1 448
36  0 0 0 0 0 0 0 0 0 1 0 0 0 0 0  1 449
93  0 0 1 0 0 0 0 0 0 0 0 0 0 0 0  1 450
84  0 0 0 0 0 0 0 0 0 0 0 0 0 0 1  1 451
42  1 0 0 0 0 0 0 0 0 0 0 0 0 0 0  1 452
0  0 0 0 0 0 0 0 0 0 0 0 0 0 0 0  0
